(declare-fun var0 () String)
(assert (RegexIn var0 (RegexConcat (RegexStar (RegexStar (Str2Reg "|"))) (RegexConcat (RegexStar (RegexStar (Str2Reg "{{{"))) (RegexConcat (RegexUnion (RegexPlus (Str2Reg "___")) (RegexStar (Str2Reg "```"))) (RegexConcat (RegexUnion (RegexUnion (Str2Reg "\\\\") (Str2Reg "]]")) (RegexPlus (Str2Reg "^^"))) (RegexConcat (RegexPlus (RegexPlus (Str2Reg "[[["))) (RegexConcat (RegexStar (RegexPlus (Str2Reg "@@"))) (RegexConcat (RegexUnion (RegexStar (Str2Reg ">")) (RegexPlus (Str2Reg "??"))) (RegexConcat (RegexPlus (RegexPlus (Str2Reg "="))) (RegexConcat (RegexUnion (RegexStar (Str2Reg ";;")) (RegexStar (Str2Reg "<<<"))) (RegexConcat (RegexStar (RegexUnion (Str2Reg "/") (Str2Reg ":"))) (RegexConcat (RegexPlus (RegexUnion (Str2Reg "--") (Str2Reg ".."))) (RegexConcat (RegexStar (RegexUnion (Str2Reg "+") (Str2Reg ",,,"))) (RegexConcat (RegexUnion (RegexUnion (Str2Reg "'''") (Str2Reg "((")) (RegexUnion (Str2Reg "))") (Str2Reg "***"))) (RegexConcat (RegexPlus (RegexPlus (Str2Reg "&&"))) (RegexConcat (RegexPlus (RegexPlus (Str2Reg "%"))) (RegexConcat (RegexUnion (RegexUnion (Str2Reg "\"\"\"") (Str2Reg "##")) (RegexPlus (Str2Reg "$$$"))) (RegexConcat (RegexStar (RegexPlus (Str2Reg "!"))) (RegexConcat (RegexPlus (RegexStar (Str2Reg "Z"))) (RegexConcat (RegexUnion (RegexUnion (Str2Reg "VVV") (Str2Reg "WWW")) (RegexUnion (Str2Reg "XX") (Str2Reg "YY"))) (RegexConcat (RegexPlus (RegexPlus (Str2Reg "UU"))) (RegexConcat (RegexUnion (RegexUnion (Str2Reg "Q") (Str2Reg "RRR")) (RegexUnion (Str2Reg "SSS") (Str2Reg "T"))) (RegexConcat (RegexStar (RegexPlus (Str2Reg "PPP"))) (RegexConcat (RegexPlus (RegexStar (Str2Reg "OOO"))) (RegexConcat (RegexStar (RegexStar (Str2Reg "N"))) (RegexConcat (RegexPlus (RegexStar (Str2Reg "MMM"))) (RegexConcat (RegexStar (RegexStar (Str2Reg "LLL"))) (RegexConcat (RegexPlus (RegexStar (Str2Reg "KKK"))) (RegexConcat (RegexPlus (RegexStar (Str2Reg "J"))) (RegexConcat (RegexUnion (RegexUnion (Str2Reg "GGG") (Str2Reg "H")) (RegexPlus (Str2Reg "I"))) (RegexConcat (RegexStar (RegexUnion (Str2Reg "E") (Str2Reg "F"))) (RegexConcat (RegexStar (RegexStar (Str2Reg "D"))) (RegexConcat (RegexUnion (RegexPlus (Str2Reg "BBB")) (RegexPlus (Str2Reg "CCC"))) (RegexConcat (RegexStar (RegexUnion (Str2Reg "zz") (Str2Reg "AAA"))) (RegexConcat (RegexUnion (RegexStar (Str2Reg "xxx")) (RegexPlus (Str2Reg "yyy"))) (RegexConcat (RegexPlus (RegexPlus (Str2Reg "ww"))) (RegexConcat (RegexStar (RegexStar (Str2Reg "vv"))) (RegexConcat (RegexStar (RegexPlus (Str2Reg "uuu"))) (RegexConcat (RegexStar (RegexUnion (Str2Reg "sss") (Str2Reg "tt"))) (RegexConcat (RegexPlus (RegexStar (Str2Reg "rr"))) (RegexConcat (RegexStar (RegexPlus (Str2Reg "q"))) (RegexConcat (RegexStar (RegexPlus (Str2Reg "pp"))) (RegexConcat (RegexPlus (RegexStar (Str2Reg "ooo"))) (RegexConcat (RegexPlus (RegexStar (Str2Reg "nnn"))) (RegexConcat (RegexUnion (RegexPlus (Str2Reg "l")) (RegexPlus (Str2Reg "mm"))) (RegexConcat (RegexStar (RegexPlus (Str2Reg "kk"))) (RegexConcat (RegexPlus (RegexUnion (Str2Reg "ii") (Str2Reg "jj"))) (RegexConcat (RegexStar (RegexPlus (Str2Reg "hh"))) (RegexConcat (RegexStar (RegexUnion (Str2Reg "fff") (Str2Reg "gg"))) (RegexConcat (RegexUnion (RegexUnion (Str2Reg "ccc") (Str2Reg "dd")) (RegexStar (Str2Reg "eee"))) (RegexConcat (RegexStar (RegexPlus (Str2Reg "bb"))) (RegexConcat (RegexStar (RegexPlus (Str2Reg "a"))) (RegexConcat (RegexUnion (RegexPlus (Str2Reg "8")) (RegexPlus (Str2Reg "999"))) (RegexConcat (RegexStar (RegexUnion (Str2Reg "66") (Str2Reg "7"))) (RegexConcat (RegexUnion (RegexUnion (Str2Reg "3") (Str2Reg "444")) (RegexPlus (Str2Reg "55"))) (RegexConcat (RegexPlus (RegexStar (Str2Reg "22"))) (RegexConcat (RegexStar (RegexPlus (Str2Reg "1"))) (RegexStar (RegexPlus (Str2Reg "0")))))))))))))))))))))))))))))))))))))))))))))))))))))))))))))
(check-sat)